data;
set K:= K1 K2 K3 K4 K5 K6 K7 K8 K9 K10 ;

set F:= F1 F2 F3 ;

set Q:= Q1 Q2 ;

param T:= 45;
param V: 
	K1  K2  K3  K4  K5  K6  K7  K8  K9  K10 :=
Q1	1   1   1   1   1   1   0   0   0   0   
Q2	0   0   0   0   0   0   1   1   1   1   
; # if resorce k is of type q

param TF:= 
K1 6
K2 6
K3 6
K4 6
K5 6
K6 6
K7 12
K8 12
K9 12
K10 12
; # number of continuous time slots resource can fly

param TR:= 
K1 2
K2 2
K3 2
K4 2
K5 2
K6 2
K7 4
K8 4
K9 4
K10 4
; #  number of continuous time slots resource k needs to rest between flights

param P:= 
K1 36
K2 36
K3 36
K4 36
K5 36
K6 36
K7 36
K8 36
K9 36
K10 36
; #  number of continuous time slots a pilot can be present including rest times for resource k 

param N:= 
K1 4
K2 4
K3 4
K4 4
K5 4
K6 4
K7 1
K8 1
K9 2
K10 2
; # max number of flights resource k can fly in the total time period

param A: 
	K1  K2  K3  K4  K5  K6  K7  K8  K9  K10 :=
1	1   1   1   1   1   1   0   0   1   1   
2	1   1   1   1   1   1   0   0   1   1   
3	1   1   1   1   1   1   0   0   1   1   
4	1   1   1   1   1   1   0   0   1   1   
5	1   1   1   1   1   1   0   0   1   1   
6	1   1   1   1   1   1   0   0   1   1   
7	1   1   1   1   1   1   0   0   1   1   
8	1   1   1   1   1   1   0   0   1   1   
9	1   1   1   1   1   1   0   0   1   1   
10	1   1   1   1   1   1   0   0   1   1   
11	1   1   1   1   1   1   0   0   1   1   
12	1   1   1   1   1   1   0   0   1   1   
13	1   1   1   1   1   1   0   0   1   1   
14	1   1   1   1   1   1   0   0   1   1   
15	1   1   1   1   1   1   0   0   1   1   
16	1   1   1   1   1   1   1   0   1   1   
17	1   1   1   1   1   1   1   0   1   1   
18	1   1   1   1   1   1   1   0   1   1   
19	1   1   1   1   1   1   1   1   1   1   
20	1   1   1   1   1   1   1   1   1   1   
21	1   1   1   1   1   1   1   1   1   1   
22	1   1   1   1   1   1   1   1   1   1   
23	1   1   1   1   1   1   1   1   1   1   
24	1   1   1   1   1   1   1   1   1   1   
25	1   1   1   1   1   1   1   1   1   1   
26	1   1   1   1   1   1   1   1   1   1   
27	1   1   1   1   1   1   1   1   1   1   
28	1   1   1   1   1   1   1   1   1   1   
29	1   1   1   1   1   1   1   1   1   1   
30	1   1   1   1   1   1   1   1   1   1   
31	1   1   1   1   1   1   1   1   1   1   
32	1   1   1   1   1   1   1   1   1   1   
33	1   1   1   1   1   1   1   1   1   1   
34	1   1   1   1   1   1   1   1   1   1   
35	1   1   1   1   1   1   1   1   1   1   
36	1   1   1   1   1   1   1   1   1   1   
37	1   1   1   1   1   1   1   1   1   1   
38	1   1   1   1   1   1   1   1   1   1   
39	1   1   1   1   1   1   1   1   1   1   
40	1   1   1   1   1   1   1   1   1   1   
41	1   1   1   1   1   1   1   1   1   1   
42	1   1   1   1   1   1   1   1   1   1   
43	1   1   1   1   1   1   1   1   1   1   
44	1   1   1   1   1   1   1   1   1   1   
45	1   1   1   1   1   1   1   1   1   1   
; # availability of resorce k in time slot t

param B: 
	F1  F2  F3  :=
Q1	0   0   0   
Q2	0   0   0   
; # if front f requires resources of type q

param U: 
	F1  F2  F3  :=
K1	0   0   0   
K2	0   0   0   
K3	0   0   0   
K4	0   0   0   
K5	0   0   0   
K6	0   0   0   
K7	1   1   1   
K8	2   2   2   
K9	2   2   2   
K10	1   1   1   
; # transit time of resource

param C:= 
K1 900
K2 900
K3 900
K4 1500
K5 4500
K6 2100
K7 5500
K8 5500
K9 5500
K10 5500
; #  water capacity of resource k

param S:= 
F1 9
F2 8
F3 9
; # max number of resources that can fly at front f in the same time slot

param D:= 

[*,*,F1 ]:  K1    K2    K3    K4    K5    K6    K7    K8    K9    K10   :=
1           1.82  1.82  1.82  1.82  1.45  1.82  1.09  1.09  1.09  1.09  
2           1.82  1.82  1.82  1.82  1.45  1.82  1.09  1.09  1.09  1.09  
3           1.82  1.82  1.82  1.82  1.45  1.82  1.09  1.09  1.09  1.09  
4           1.82  1.82  1.82  1.82  1.45  1.82  1.09  1.09  1.09  1.09  
5           1.82  1.82  1.82  1.82  1.45  1.82  1.09  1.09  1.09  1.09  
6           1.82  1.82  1.82  1.82  1.45  1.82  1.09  1.09  1.09  1.09  
7           1.82  1.82  1.82  1.82  1.45  1.82  1.09  1.09  1.09  1.09  
8           1.82  1.82  1.82  1.82  1.45  1.82  1.09  1.09  1.09  1.09  
9           1.82  1.82  1.82  1.82  1.45  1.82  1.09  1.09  1.09  1.09  
10          1.82  1.82  1.82  1.82  1.45  1.82  1.09  1.09  1.09  1.09  
11          1.82  1.82  1.82  1.82  1.45  1.82  1.09  1.09  1.09  1.09  
12          1.82  1.82  1.82  1.82  1.45  1.82  1.09  1.09  1.09  1.09  
13          1.82  1.82  1.82  1.82  1.45  1.82  1.09  1.09  1.09  1.09  
14          1.82  1.82  1.82  1.82  1.45  1.82  1.09  1.09  1.09  1.09  
15          1.82  1.82  1.82  1.82  1.45  1.82  1.09  1.09  1.09  1.09  
16          1.82  1.82  1.82  1.82  1.45  1.82  1.09  1.09  1.09  1.09  
17          1.82  1.82  1.82  1.82  1.45  1.82  1.09  1.09  1.09  1.09  
18          1.82  1.82  1.82  1.82  1.45  1.82  1.09  1.09  1.09  1.09  
19          1.82  1.82  1.82  1.82  1.45  1.82  1.09  1.09  1.09  1.09  
20          1.82  1.82  1.82  1.82  1.45  1.82  1.09  1.09  1.09  1.09  
21          1.82  1.82  1.82  1.82  1.45  1.82  1.09  1.09  1.09  1.09  
22          1.82  1.82  1.82  1.82  1.45  1.82  1.09  1.09  1.09  1.09  
23          1.82  1.82  1.82  1.82  1.45  1.82  1.09  1.09  1.09  1.09  
24          1.82  1.82  1.82  1.82  1.45  1.82  1.09  1.09  1.09  1.09  
25          1.73  1.73  1.73  1.73  1.38  1.73  1.04  1.04  1.04  1.04  
26          1.73  1.73  1.73  1.73  1.38  1.73  1.04  1.04  1.04  1.04  
27          1.73  1.73  1.73  1.73  1.38  1.73  1.04  1.04  1.04  1.04  
28          1.73  1.73  1.73  1.73  1.38  1.73  1.04  1.04  1.04  1.04  
29          1.73  1.73  1.73  1.73  1.38  1.73  1.04  1.04  1.04  1.04  
30          1.73  1.73  1.73  1.73  1.38  1.73  1.04  1.04  1.04  1.04  
31          1.73  1.73  1.73  1.73  1.38  1.73  1.04  1.04  1.04  1.04  
32          1.73  1.73  1.73  1.73  1.38  1.73  1.04  1.04  1.04  1.04  
33          1.73  1.73  1.73  1.73  1.38  1.73  1.04  1.04  1.04  1.04  
34          1.82  1.82  1.82  1.82  1.45  1.82  1.09  1.09  1.09  1.09  
35          1.82  1.82  1.82  1.82  1.45  1.82  1.09  1.09  1.09  1.09  
36          1.82  1.82  1.82  1.82  1.45  1.82  1.09  1.09  1.09  1.09  
37          1.82  1.82  1.82  1.82  1.45  1.82  1.09  1.09  1.09  1.09  
38          1.82  1.82  1.82  1.82  1.45  1.82  1.09  1.09  1.09  1.09  
39          1.82  1.82  1.82  1.82  1.45  1.82  1.09  1.09  1.09  1.09  
40          1.82  1.82  1.82  1.82  1.45  1.82  1.09  1.09  1.09  1.09  
41          1.82  1.82  1.82  1.82  1.45  1.82  1.09  1.09  1.09  1.09  
42          1.82  1.82  1.82  1.82  1.45  1.82  1.09  1.09  1.09  1.09  
43          1.82  1.82  1.82  1.82  1.45  1.82  1.09  1.09  1.09  1.09  
44          1.82  1.82  1.82  1.82  1.45  1.82  1.09  1.09  1.09  1.09  
45          1.82  1.82  1.82  1.82  1.45  1.82  1.09  1.09  1.09  1.09  

[*,*,F2 ]:  K1    K2    K3    K4    K5    K6    K7    K8    K9    K10   :=
1           1.42  1.42  1.42  1.42  1.13  1.42  0.85  0.85  0.85  0.85  
2           1.42  1.42  1.42  1.42  1.13  1.42  0.85  0.85  0.85  0.85  
3           1.42  1.42  1.42  1.42  1.13  1.42  0.85  0.85  0.85  0.85  
4           1.42  1.42  1.42  1.42  1.13  1.42  0.85  0.85  0.85  0.85  
5           1.42  1.42  1.42  1.42  1.13  1.42  0.85  0.85  0.85  0.85  
6           1.42  1.42  1.42  1.42  1.13  1.42  0.85  0.85  0.85  0.85  
7           1.42  1.42  1.42  1.42  1.13  1.42  0.85  0.85  0.85  0.85  
8           1.42  1.42  1.42  1.42  1.13  1.42  0.85  0.85  0.85  0.85  
9           1.42  1.42  1.42  1.42  1.13  1.42  0.85  0.85  0.85  0.85  
10          1.42  1.42  1.42  1.42  1.13  1.42  0.85  0.85  0.85  0.85  
11          1.42  1.42  1.42  1.42  1.13  1.42  0.85  0.85  0.85  0.85  
12          1.42  1.42  1.42  1.42  1.13  1.42  0.85  0.85  0.85  0.85  
13          1.42  1.42  1.42  1.42  1.13  1.42  0.85  0.85  0.85  0.85  
14          1.42  1.42  1.42  1.42  1.13  1.42  0.85  0.85  0.85  0.85  
15          1.42  1.42  1.42  1.42  1.13  1.42  0.85  0.85  0.85  0.85  
16          1.42  1.42  1.42  1.42  1.13  1.42  0.85  0.85  0.85  0.85  
17          1.42  1.42  1.42  1.42  1.13  1.42  0.85  0.85  0.85  0.85  
18          1.42  1.42  1.42  1.42  1.13  1.42  0.85  0.85  0.85  0.85  
19          1.42  1.42  1.42  1.42  1.13  1.42  0.85  0.85  0.85  0.85  
20          1.42  1.42  1.42  1.42  1.13  1.42  0.85  0.85  0.85  0.85  
21          1.42  1.42  1.42  1.42  1.13  1.42  0.85  0.85  0.85  0.85  
22          1.42  1.42  1.42  1.42  1.13  1.42  0.85  0.85  0.85  0.85  
23          1.42  1.42  1.42  1.42  1.13  1.42  0.85  0.85  0.85  0.85  
24          1.42  1.42  1.42  1.42  1.13  1.42  0.85  0.85  0.85  0.85  
25          1.35  1.35  1.35  1.35  1.07  1.35  0.81  0.81  0.81  0.81  
26          1.35  1.35  1.35  1.35  1.07  1.35  0.81  0.81  0.81  0.81  
27          1.35  1.35  1.35  1.35  1.07  1.35  0.81  0.81  0.81  0.81  
28          1.35  1.35  1.35  1.35  1.07  1.35  0.81  0.81  0.81  0.81  
29          1.35  1.35  1.35  1.35  1.07  1.35  0.81  0.81  0.81  0.81  
30          1.35  1.35  1.35  1.35  1.07  1.35  0.81  0.81  0.81  0.81  
31          1.35  1.35  1.35  1.35  1.07  1.35  0.81  0.81  0.81  0.81  
32          1.35  1.35  1.35  1.35  1.07  1.35  0.81  0.81  0.81  0.81  
33          1.35  1.35  1.35  1.35  1.07  1.35  0.81  0.81  0.81  0.81  
34          1.42  1.42  1.42  1.42  1.13  1.42  0.85  0.85  0.85  0.85  
35          1.42  1.42  1.42  1.42  1.13  1.42  0.85  0.85  0.85  0.85  
36          1.42  1.42  1.42  1.42  1.13  1.42  0.85  0.85  0.85  0.85  
37          1.42  1.42  1.42  1.42  1.13  1.42  0.85  0.85  0.85  0.85  
38          1.42  1.42  1.42  1.42  1.13  1.42  0.85  0.85  0.85  0.85  
39          1.42  1.42  1.42  1.42  1.13  1.42  0.85  0.85  0.85  0.85  
40          1.42  1.42  1.42  1.42  1.13  1.42  0.85  0.85  0.85  0.85  
41          1.42  1.42  1.42  1.42  1.13  1.42  0.85  0.85  0.85  0.85  
42          1.42  1.42  1.42  1.42  1.13  1.42  0.85  0.85  0.85  0.85  
43          1.42  1.42  1.42  1.42  1.13  1.42  0.85  0.85  0.85  0.85  
44          1.42  1.42  1.42  1.42  1.13  1.42  0.85  0.85  0.85  0.85  
45          1.42  1.42  1.42  1.42  1.13  1.42  0.85  0.85  0.85  0.85  

[*,*,F3 ]:  K1    K2    K3    K4    K5    K6    K7    K8    K9    K10   :=
1           1.99  1.99  1.99  1.99  1.58  1.99  1.19  1.19  1.19  1.19  
2           1.99  1.99  1.99  1.99  1.58  1.99  1.19  1.19  1.19  1.19  
3           1.99  1.99  1.99  1.99  1.58  1.99  1.19  1.19  1.19  1.19  
4           1.99  1.99  1.99  1.99  1.58  1.99  1.19  1.19  1.19  1.19  
5           1.99  1.99  1.99  1.99  1.58  1.99  1.19  1.19  1.19  1.19  
6           1.99  1.99  1.99  1.99  1.58  1.99  1.19  1.19  1.19  1.19  
7           1.99  1.99  1.99  1.99  1.58  1.99  1.19  1.19  1.19  1.19  
8           1.99  1.99  1.99  1.99  1.58  1.99  1.19  1.19  1.19  1.19  
9           1.99  1.99  1.99  1.99  1.58  1.99  1.19  1.19  1.19  1.19  
10          1.99  1.99  1.99  1.99  1.58  1.99  1.19  1.19  1.19  1.19  
11          1.99  1.99  1.99  1.99  1.58  1.99  1.19  1.19  1.19  1.19  
12          1.99  1.99  1.99  1.99  1.58  1.99  1.19  1.19  1.19  1.19  
13          1.99  1.99  1.99  1.99  1.58  1.99  1.19  1.19  1.19  1.19  
14          1.99  1.99  1.99  1.99  1.58  1.99  1.19  1.19  1.19  1.19  
15          1.99  1.99  1.99  1.99  1.58  1.99  1.19  1.19  1.19  1.19  
16          1.99  1.99  1.99  1.99  1.58  1.99  1.19  1.19  1.19  1.19  
17          1.99  1.99  1.99  1.99  1.58  1.99  1.19  1.19  1.19  1.19  
18          1.99  1.99  1.99  1.99  1.58  1.99  1.19  1.19  1.19  1.19  
19          1.99  1.99  1.99  1.99  1.58  1.99  1.19  1.19  1.19  1.19  
20          1.99  1.99  1.99  1.99  1.58  1.99  1.19  1.19  1.19  1.19  
21          1.99  1.99  1.99  1.99  1.58  1.99  1.19  1.19  1.19  1.19  
22          1.99  1.99  1.99  1.99  1.58  1.99  1.19  1.19  1.19  1.19  
23          1.99  1.99  1.99  1.99  1.58  1.99  1.19  1.19  1.19  1.19  
24          1.99  1.99  1.99  1.99  1.58  1.99  1.19  1.19  1.19  1.19  
25          1.89  1.89  1.89  1.89  1.50  1.89  1.13  1.13  1.13  1.13  
26          1.89  1.89  1.89  1.89  1.50  1.89  1.13  1.13  1.13  1.13  
27          1.89  1.89  1.89  1.89  1.50  1.89  1.13  1.13  1.13  1.13  
28          1.89  1.89  1.89  1.89  1.50  1.89  1.13  1.13  1.13  1.13  
29          1.89  1.89  1.89  1.89  1.50  1.89  1.13  1.13  1.13  1.13  
30          1.89  1.89  1.89  1.89  1.50  1.89  1.13  1.13  1.13  1.13  
31          1.89  1.89  1.89  1.89  1.50  1.89  1.13  1.13  1.13  1.13  
32          1.89  1.89  1.89  1.89  1.50  1.89  1.13  1.13  1.13  1.13  
33          1.89  1.89  1.89  1.89  1.50  1.89  1.13  1.13  1.13  1.13  
34          1.99  1.99  1.99  1.99  1.58  1.99  1.19  1.19  1.19  1.19  
35          1.99  1.99  1.99  1.99  1.58  1.99  1.19  1.19  1.19  1.19  
36          1.99  1.99  1.99  1.99  1.58  1.99  1.19  1.19  1.19  1.19  
37          1.99  1.99  1.99  1.99  1.58  1.99  1.19  1.19  1.19  1.19  
38          1.99  1.99  1.99  1.99  1.58  1.99  1.19  1.19  1.19  1.19  
39          1.99  1.99  1.99  1.99  1.58  1.99  1.19  1.19  1.19  1.19  
40          1.99  1.99  1.99  1.99  1.58  1.99  1.19  1.19  1.19  1.19  
41          1.99  1.99  1.99  1.99  1.58  1.99  1.19  1.19  1.19  1.19  
42          1.99  1.99  1.99  1.99  1.58  1.99  1.19  1.19  1.19  1.19  
43          1.99  1.99  1.99  1.99  1.58  1.99  1.19  1.19  1.19  1.19  
44          1.99  1.99  1.99  1.99  1.58  1.99  1.19  1.19  1.19  1.19  
45          1.99  1.99  1.99  1.99  1.58  1.99  1.19  1.19  1.19  1.19  
; # downloads resource k can do at front f in time t if intermediate time slot

param E:= 

[*,*,F1 ]:  K1    K2    K3    K4    K5    K6    K7    K8    K9    K10   :=
1           0.02  0.66  0.84  0.44  0.52  0.31  0.04  0.47  0.37  0.03  
2           0.02  0.66  0.84  0.44  0.52  0.31  0.04  0.47  0.37  0.03  
3           0.02  0.66  0.84  0.44  0.52  0.31  0.04  0.47  0.37  0.03  
4           0.02  0.66  0.84  0.44  0.52  0.31  0.04  0.47  0.37  0.03  
5           0.02  0.66  0.84  0.44  0.52  0.31  0.04  0.47  0.37  0.03  
6           0.02  0.66  0.84  0.44  0.52  0.31  0.04  0.47  0.37  0.03  
7           0.02  0.66  0.84  0.44  0.52  0.31  0.04  0.47  0.37  0.03  
8           0.02  0.66  0.84  0.44  0.52  0.31  0.04  0.47  0.37  0.03  
9           0.02  0.66  0.84  0.44  0.52  0.31  0.04  0.47  0.37  0.03  
10          0.02  0.66  0.84  0.44  0.52  0.31  0.04  0.47  0.37  0.03  
11          0.02  0.66  0.84  0.44  0.52  0.31  0.04  0.47  0.37  0.03  
12          0.02  0.66  0.84  0.44  0.52  0.31  0.04  0.47  0.37  0.03  
13          0.02  0.66  0.84  0.44  0.52  0.31  0.04  0.47  0.37  0.03  
14          0.02  0.66  0.84  0.44  0.52  0.31  0.04  0.47  0.37  0.03  
15          0.02  0.66  0.84  0.44  0.52  0.31  0.04  0.47  0.37  0.03  
16          0.02  0.66  0.84  0.44  0.52  0.31  0.04  0.47  0.37  0.03  
17          0.02  0.66  0.84  0.44  0.52  0.31  0.04  0.47  0.37  0.03  
18          0.02  0.66  0.84  0.44  0.52  0.31  0.04  0.47  0.37  0.03  
19          0.02  0.66  0.84  0.44  0.52  0.31  0.04  0.47  0.37  0.03  
20          0.02  0.66  0.84  0.44  0.52  0.31  0.04  0.47  0.37  0.03  
21          0.02  0.66  0.84  0.44  0.52  0.31  0.04  0.47  0.37  0.03  
22          0.02  0.66  0.84  0.44  0.52  0.31  0.04  0.47  0.37  0.03  
23          0.02  0.66  0.84  0.44  0.52  0.31  0.04  0.47  0.37  0.03  
24          0.02  0.66  0.84  0.44  0.52  0.31  0.04  0.47  0.37  0.03  
25          0.02  0.62  0.80  0.42  0.50  0.29  0.04  0.45  0.35  0.03  
26          0.02  0.62  0.80  0.42  0.50  0.29  0.04  0.45  0.35  0.03  
27          0.02  0.62  0.80  0.42  0.50  0.29  0.04  0.45  0.35  0.03  
28          0.02  0.62  0.80  0.42  0.50  0.29  0.04  0.45  0.35  0.03  
29          0.02  0.62  0.80  0.42  0.50  0.29  0.04  0.45  0.35  0.03  
30          0.02  0.62  0.80  0.42  0.50  0.29  0.04  0.45  0.35  0.03  
31          0.02  0.62  0.80  0.42  0.50  0.29  0.04  0.45  0.35  0.03  
32          0.02  0.62  0.80  0.42  0.50  0.29  0.04  0.45  0.35  0.03  
33          0.02  0.62  0.80  0.42  0.50  0.29  0.04  0.45  0.35  0.03  
34          0.02  0.66  0.84  0.44  0.52  0.31  0.04  0.47  0.37  0.03  
35          0.02  0.66  0.84  0.44  0.52  0.31  0.04  0.47  0.37  0.03  
36          0.02  0.66  0.84  0.44  0.52  0.31  0.04  0.47  0.37  0.03  
37          0.02  0.66  0.84  0.44  0.52  0.31  0.04  0.47  0.37  0.03  
38          0.02  0.66  0.84  0.44  0.52  0.31  0.04  0.47  0.37  0.03  
39          0.02  0.66  0.84  0.44  0.52  0.31  0.04  0.47  0.37  0.03  
40          0.02  0.66  0.84  0.44  0.52  0.31  0.04  0.47  0.37  0.03  
41          0.02  0.66  0.84  0.44  0.52  0.31  0.04  0.47  0.37  0.03  
42          0.02  0.66  0.84  0.44  0.52  0.31  0.04  0.47  0.37  0.03  
43          0.02  0.66  0.84  0.44  0.52  0.31  0.04  0.47  0.37  0.03  
44          0.02  0.66  0.84  0.44  0.52  0.31  0.04  0.47  0.37  0.03  
45          0.02  0.66  0.84  0.44  0.52  0.31  0.04  0.47  0.37  0.03  

[*,*,F2 ]:  K1    K2    K3    K4    K5    K6    K7    K8    K9    K10   :=
1           0.03  0.48  0.62  0.37  0.37  0.34  0.05  0.39  0.26  0.02  
2           0.03  0.48  0.62  0.37  0.37  0.34  0.05  0.39  0.26  0.02  
3           0.03  0.48  0.62  0.37  0.37  0.34  0.05  0.39  0.26  0.02  
4           0.03  0.48  0.62  0.37  0.37  0.34  0.05  0.39  0.26  0.02  
5           0.03  0.48  0.62  0.37  0.37  0.34  0.05  0.39  0.26  0.02  
6           0.03  0.48  0.62  0.37  0.37  0.34  0.05  0.39  0.26  0.02  
7           0.03  0.48  0.62  0.37  0.37  0.34  0.05  0.39  0.26  0.02  
8           0.03  0.48  0.62  0.37  0.37  0.34  0.05  0.39  0.26  0.02  
9           0.03  0.48  0.62  0.37  0.37  0.34  0.05  0.39  0.26  0.02  
10          0.03  0.48  0.62  0.37  0.37  0.34  0.05  0.39  0.26  0.02  
11          0.03  0.48  0.62  0.37  0.37  0.34  0.05  0.39  0.26  0.02  
12          0.03  0.48  0.62  0.37  0.37  0.34  0.05  0.39  0.26  0.02  
13          0.03  0.48  0.62  0.37  0.37  0.34  0.05  0.39  0.26  0.02  
14          0.03  0.48  0.62  0.37  0.37  0.34  0.05  0.39  0.26  0.02  
15          0.03  0.48  0.62  0.37  0.37  0.34  0.05  0.39  0.26  0.02  
16          0.03  0.48  0.62  0.37  0.37  0.34  0.05  0.39  0.26  0.02  
17          0.03  0.48  0.62  0.37  0.37  0.34  0.05  0.39  0.26  0.02  
18          0.03  0.48  0.62  0.37  0.37  0.34  0.05  0.39  0.26  0.02  
19          0.03  0.48  0.62  0.37  0.37  0.34  0.05  0.39  0.26  0.02  
20          0.03  0.48  0.62  0.37  0.37  0.34  0.05  0.39  0.26  0.02  
21          0.03  0.48  0.62  0.37  0.37  0.34  0.05  0.39  0.26  0.02  
22          0.03  0.48  0.62  0.37  0.37  0.34  0.05  0.39  0.26  0.02  
23          0.03  0.48  0.62  0.37  0.37  0.34  0.05  0.39  0.26  0.02  
24          0.03  0.48  0.62  0.37  0.37  0.34  0.05  0.39  0.26  0.02  
25          0.03  0.46  0.59  0.35  0.35  0.32  0.05  0.37  0.25  0.02  
26          0.03  0.46  0.59  0.35  0.35  0.32  0.05  0.37  0.25  0.02  
27          0.03  0.46  0.59  0.35  0.35  0.32  0.05  0.37  0.25  0.02  
28          0.03  0.46  0.59  0.35  0.35  0.32  0.05  0.37  0.25  0.02  
29          0.03  0.46  0.59  0.35  0.35  0.32  0.05  0.37  0.25  0.02  
30          0.03  0.46  0.59  0.35  0.35  0.32  0.05  0.37  0.25  0.02  
31          0.03  0.46  0.59  0.35  0.35  0.32  0.05  0.37  0.25  0.02  
32          0.03  0.46  0.59  0.35  0.35  0.32  0.05  0.37  0.25  0.02  
33          0.03  0.46  0.59  0.35  0.35  0.32  0.05  0.37  0.25  0.02  
34          0.03  0.48  0.62  0.37  0.37  0.34  0.05  0.39  0.26  0.02  
35          0.03  0.48  0.62  0.37  0.37  0.34  0.05  0.39  0.26  0.02  
36          0.03  0.48  0.62  0.37  0.37  0.34  0.05  0.39  0.26  0.02  
37          0.03  0.48  0.62  0.37  0.37  0.34  0.05  0.39  0.26  0.02  
38          0.03  0.48  0.62  0.37  0.37  0.34  0.05  0.39  0.26  0.02  
39          0.03  0.48  0.62  0.37  0.37  0.34  0.05  0.39  0.26  0.02  
40          0.03  0.48  0.62  0.37  0.37  0.34  0.05  0.39  0.26  0.02  
41          0.03  0.48  0.62  0.37  0.37  0.34  0.05  0.39  0.26  0.02  
42          0.03  0.48  0.62  0.37  0.37  0.34  0.05  0.39  0.26  0.02  
43          0.03  0.48  0.62  0.37  0.37  0.34  0.05  0.39  0.26  0.02  
44          0.03  0.48  0.62  0.37  0.37  0.34  0.05  0.39  0.26  0.02  
45          0.03  0.48  0.62  0.37  0.37  0.34  0.05  0.39  0.26  0.02  

[*,*,F3 ]:  K1    K2    K3    K4    K5    K6    K7    K8    K9    K10   :=
1           0.04  0.83  0.91  0.44  0.60  0.44  0.06  0.51  0.39  0.01  
2           0.04  0.83  0.91  0.44  0.60  0.44  0.06  0.51  0.39  0.01  
3           0.04  0.83  0.91  0.44  0.60  0.44  0.06  0.51  0.39  0.01  
4           0.04  0.83  0.91  0.44  0.60  0.44  0.06  0.51  0.39  0.01  
5           0.04  0.83  0.91  0.44  0.60  0.44  0.06  0.51  0.39  0.01  
6           0.04  0.83  0.91  0.44  0.60  0.44  0.06  0.51  0.39  0.01  
7           0.04  0.83  0.91  0.44  0.60  0.44  0.06  0.51  0.39  0.01  
8           0.04  0.83  0.91  0.44  0.60  0.44  0.06  0.51  0.39  0.01  
9           0.04  0.83  0.91  0.44  0.60  0.44  0.06  0.51  0.39  0.01  
10          0.04  0.83  0.91  0.44  0.60  0.44  0.06  0.51  0.39  0.01  
11          0.04  0.83  0.91  0.44  0.60  0.44  0.06  0.51  0.39  0.01  
12          0.04  0.83  0.91  0.44  0.60  0.44  0.06  0.51  0.39  0.01  
13          0.04  0.83  0.91  0.44  0.60  0.44  0.06  0.51  0.39  0.01  
14          0.04  0.83  0.91  0.44  0.60  0.44  0.06  0.51  0.39  0.01  
15          0.04  0.83  0.91  0.44  0.60  0.44  0.06  0.51  0.39  0.01  
16          0.04  0.83  0.91  0.44  0.60  0.44  0.06  0.51  0.39  0.01  
17          0.04  0.83  0.91  0.44  0.60  0.44  0.06  0.51  0.39  0.01  
18          0.04  0.83  0.91  0.44  0.60  0.44  0.06  0.51  0.39  0.01  
19          0.04  0.83  0.91  0.44  0.60  0.44  0.06  0.51  0.39  0.01  
20          0.04  0.83  0.91  0.44  0.60  0.44  0.06  0.51  0.39  0.01  
21          0.04  0.83  0.91  0.44  0.60  0.44  0.06  0.51  0.39  0.01  
22          0.04  0.83  0.91  0.44  0.60  0.44  0.06  0.51  0.39  0.01  
23          0.04  0.83  0.91  0.44  0.60  0.44  0.06  0.51  0.39  0.01  
24          0.04  0.83  0.91  0.44  0.60  0.44  0.06  0.51  0.39  0.01  
25          0.04  0.79  0.87  0.42  0.57  0.42  0.06  0.49  0.37  0.01  
26          0.04  0.79  0.87  0.42  0.57  0.42  0.06  0.49  0.37  0.01  
27          0.04  0.79  0.87  0.42  0.57  0.42  0.06  0.49  0.37  0.01  
28          0.04  0.79  0.87  0.42  0.57  0.42  0.06  0.49  0.37  0.01  
29          0.04  0.79  0.87  0.42  0.57  0.42  0.06  0.49  0.37  0.01  
30          0.04  0.79  0.87  0.42  0.57  0.42  0.06  0.49  0.37  0.01  
31          0.04  0.79  0.87  0.42  0.57  0.42  0.06  0.49  0.37  0.01  
32          0.04  0.79  0.87  0.42  0.57  0.42  0.06  0.49  0.37  0.01  
33          0.04  0.79  0.87  0.42  0.57  0.42  0.06  0.49  0.37  0.01  
34          0.04  0.83  0.91  0.44  0.60  0.44  0.06  0.51  0.39  0.01  
35          0.04  0.83  0.91  0.44  0.60  0.44  0.06  0.51  0.39  0.01  
36          0.04  0.83  0.91  0.44  0.60  0.44  0.06  0.51  0.39  0.01  
37          0.04  0.83  0.91  0.44  0.60  0.44  0.06  0.51  0.39  0.01  
38          0.04  0.83  0.91  0.44  0.60  0.44  0.06  0.51  0.39  0.01  
39          0.04  0.83  0.91  0.44  0.60  0.44  0.06  0.51  0.39  0.01  
40          0.04  0.83  0.91  0.44  0.60  0.44  0.06  0.51  0.39  0.01  
41          0.04  0.83  0.91  0.44  0.60  0.44  0.06  0.51  0.39  0.01  
42          0.04  0.83  0.91  0.44  0.60  0.44  0.06  0.51  0.39  0.01  
43          0.04  0.83  0.91  0.44  0.60  0.44  0.06  0.51  0.39  0.01  
44          0.04  0.83  0.91  0.44  0.60  0.44  0.06  0.51  0.39  0.01  
45          0.04  0.83  0.91  0.44  0.60  0.44  0.06  0.51  0.39  0.01  
; # downloads resource k can do at front f in time t if starting or ending flight

param W: 
	F1        F2        F3        :=
1	355.13    355.13    355.13    
2	1420.51   1420.51   1420.51   
3	1420.51   1420.51   1420.51   
4	1420.51   1420.51   1420.51   
5	1420.51   1420.51   1420.51   
6	1420.51   1420.51   1420.51   
7	1420.51   1420.51   1420.51   
8	1420.51   1420.51   1420.51   
9	1420.51   1420.51   1420.51   
10	1420.51   1420.51   1420.51   
11	1420.51   1420.51   1420.51   
12	1420.51   1420.51   1420.51   
13	1420.51   1420.51   1420.51   
14	1420.51   1420.51   1420.51   
15	1420.51   1420.51   1420.51   
16	1420.51   1420.51   1420.51   
17	1420.51   1420.51   1420.51   
18	1420.51   1420.51   1420.51   
19	631.34    631.34    631.34    
20	631.34    631.34    631.34    
21	631.34    631.34    631.34    
22	631.34    631.34    631.34    
23	631.34    631.34    631.34    
24	631.34    631.34    631.34    
25	631.34    631.34    631.34    
26	631.34    631.34    631.34    
27	631.34    631.34    631.34    
28	631.34    631.34    631.34    
29	631.34    631.34    631.34    
30	631.34    631.34    631.34    
31	631.34    631.34    631.34    
32	631.34    631.34    631.34    
33	631.34    631.34    631.34    
34	631.34    631.34    631.34    
35	631.34    631.34    631.34    
36	631.34    631.34    631.34    
37	631.34    631.34    631.34    
38	631.34    631.34    631.34    
39	631.34    631.34    631.34    
40	631.34    631.34    631.34    
41	631.34    631.34    631.34    
42	631.34    631.34    631.34    
43	631.34    631.34    631.34    
44	631.34    631.34    631.34    
45	157.83    157.83    157.83    
; # water needed at front f in time slot t

param M := 100000000; 

param a1:= 10000000;

param a2:= 100;

param a3:= 0.0001;
